; benchmark generated from python API
(set-info :status unknown)
(declare-fun cell_1_8 () Int)
(declare-fun cell_2_1 () Int)
(declare-fun cell_3_5 () Int)
(declare-fun cell_4_4 () Int)
(declare-fun cell_5_3 () Int)
(declare-fun cell_6_9 () Int)
(declare-fun cell_1_1 () Int)
(declare-fun cell_3_1 () Int)
(declare-fun cell_4_1 () Int)
(declare-fun cell_5_1 () Int)
(declare-fun cell_6_1 () Int)
(declare-fun cell_7_1 () Int)
(declare-fun cell_8_1 () Int)
(declare-fun cell_9_1 () Int)
(declare-fun cell_1_2 () Int)
(declare-fun cell_2_2 () Int)
(declare-fun cell_3_2 () Int)
(declare-fun cell_4_2 () Int)
(declare-fun cell_5_2 () Int)
(declare-fun cell_6_2 () Int)
(declare-fun cell_7_2 () Int)
(declare-fun cell_8_2 () Int)
(declare-fun cell_9_2 () Int)
(declare-fun cell_1_3 () Int)
(declare-fun cell_2_3 () Int)
(declare-fun cell_3_3 () Int)
(declare-fun cell_4_3 () Int)
(declare-fun cell_6_3 () Int)
(declare-fun cell_7_3 () Int)
(declare-fun cell_8_3 () Int)
(declare-fun cell_9_3 () Int)
(declare-fun cell_1_4 () Int)
(declare-fun cell_2_4 () Int)
(declare-fun cell_3_4 () Int)
(declare-fun cell_5_4 () Int)
(declare-fun cell_6_4 () Int)
(declare-fun cell_7_4 () Int)
(declare-fun cell_8_4 () Int)
(declare-fun cell_9_4 () Int)
(declare-fun cell_1_5 () Int)
(declare-fun cell_2_5 () Int)
(declare-fun cell_4_5 () Int)
(declare-fun cell_5_5 () Int)
(declare-fun cell_6_5 () Int)
(declare-fun cell_7_5 () Int)
(declare-fun cell_8_5 () Int)
(declare-fun cell_9_5 () Int)
(declare-fun cell_1_6 () Int)
(declare-fun cell_2_6 () Int)
(declare-fun cell_3_6 () Int)
(declare-fun cell_4_6 () Int)
(declare-fun cell_5_6 () Int)
(declare-fun cell_6_6 () Int)
(declare-fun cell_7_6 () Int)
(declare-fun cell_8_6 () Int)
(declare-fun cell_9_6 () Int)
(declare-fun cell_1_7 () Int)
(declare-fun cell_2_7 () Int)
(declare-fun cell_3_7 () Int)
(declare-fun cell_4_7 () Int)
(declare-fun cell_5_7 () Int)
(declare-fun cell_6_7 () Int)
(declare-fun cell_7_7 () Int)
(declare-fun cell_8_7 () Int)
(declare-fun cell_9_7 () Int)
(declare-fun cell_2_8 () Int)
(declare-fun cell_3_8 () Int)
(declare-fun cell_4_8 () Int)
(declare-fun cell_5_8 () Int)
(declare-fun cell_6_8 () Int)
(declare-fun cell_7_8 () Int)
(declare-fun cell_8_8 () Int)
(declare-fun cell_9_8 () Int)
(declare-fun cell_1_9 () Int)
(declare-fun cell_2_9 () Int)
(declare-fun cell_3_9 () Int)
(declare-fun cell_4_9 () Int)
(declare-fun cell_5_9 () Int)
(declare-fun cell_7_9 () Int)
(declare-fun cell_8_9 () Int)
(declare-fun cell_9_9 () Int)
(assert
 (= cell_1_8 1))
(assert
 (= cell_2_1 1))
(assert
 (= cell_3_5 1))
(assert
 (= cell_4_4 1))
(assert
 (= cell_5_3 1))
(assert
 (= cell_6_9 1))
(assert
 (let (($x1078 (= cell_1_1 9)))
 (let (($x35 (= cell_1_1 8)))
 (let (($x5812 (= cell_1_1 7)))
 (let (($x3385 (= cell_1_1 6)))
 (let (($x1659 (= cell_1_1 5)))
 (let (($x9103 (= cell_1_1 4)))
 (let (($x4250 (= cell_1_1 3)))
 (let (($x3178 (= cell_1_1 2)))
 (let (($x2547 (= cell_1_1 1)))
 (or $x2547 $x3178 $x4250 $x9103 $x1659 $x3385 $x5812 $x35 $x1078)))))))))))
(assert
 (let (($x10140 (= cell_2_1 1)))
 (or $x10140 (= cell_2_1 2) (= cell_2_1 3) (= cell_2_1 4) (= cell_2_1 5) (= cell_2_1 6) (= cell_2_1 7) (= cell_2_1 8) (= cell_2_1 9))))
(assert
 (let (($x7926 (= cell_3_1 9)))
 (let (($x5142 (= cell_3_1 8)))
 (let (($x8419 (= cell_3_1 7)))
 (let (($x4475 (= cell_3_1 6)))
 (let (($x8415 (= cell_3_1 5)))
 (let (($x87 (= cell_3_1 4)))
 (let (($x9101 (= cell_3_1 3)))
 (let (($x5291 (= cell_3_1 2)))
 (let (($x7543 (= cell_3_1 1)))
 (or $x7543 $x5291 $x9101 $x87 $x8415 $x4475 $x8419 $x5142 $x7926)))))))))))
(assert
 (let (($x7007 (= cell_4_1 9)))
 (let (($x1324 (= cell_4_1 8)))
 (let (($x8699 (= cell_4_1 7)))
 (let (($x5606 (= cell_4_1 6)))
 (let (($x2433 (= cell_4_1 5)))
 (let (($x3580 (= cell_4_1 4)))
 (let (($x5099 (= cell_4_1 3)))
 (let (($x8925 (= cell_4_1 2)))
 (let (($x291 (= cell_4_1 1)))
 (or $x291 $x8925 $x5099 $x3580 $x2433 $x5606 $x8699 $x1324 $x7007)))))))))))
(assert
 (let (($x7078 (= cell_5_1 9)))
 (let (($x9155 (= cell_5_1 8)))
 (let (($x4947 (= cell_5_1 7)))
 (let (($x8293 (= cell_5_1 6)))
 (let (($x53 (= cell_5_1 5)))
 (let (($x5006 (= cell_5_1 4)))
 (let (($x6700 (= cell_5_1 3)))
 (let (($x4118 (= cell_5_1 2)))
 (let (($x5205 (= cell_5_1 1)))
 (or $x5205 $x4118 $x6700 $x5006 $x53 $x8293 $x4947 $x9155 $x7078)))))))))))
(assert
 (let (($x135 (= cell_6_1 9)))
 (let (($x2710 (= cell_6_1 8)))
 (let (($x7216 (= cell_6_1 7)))
 (let (($x2849 (= cell_6_1 6)))
 (let (($x2183 (= cell_6_1 5)))
 (let (($x875 (= cell_6_1 4)))
 (let (($x1332 (= cell_6_1 3)))
 (let (($x3662 (= cell_6_1 2)))
 (let (($x9583 (= cell_6_1 1)))
 (or $x9583 $x3662 $x1332 $x875 $x2183 $x2849 $x7216 $x2710 $x135)))))))))))
(assert
 (let (($x9166 (= cell_7_1 1)))
 (or $x9166 (= cell_7_1 2) (= cell_7_1 3) (= cell_7_1 4) (= cell_7_1 5) (= cell_7_1 6) (= cell_7_1 7) (= cell_7_1 8) (= cell_7_1 9))))
(assert
 (let (($x3938 (= cell_8_1 1)))
 (or $x3938 (= cell_8_1 2) (= cell_8_1 3) (= cell_8_1 4) (= cell_8_1 5) (= cell_8_1 6) (= cell_8_1 7) (= cell_8_1 8) (= cell_8_1 9))))
(assert
 (let (($x8064 (= cell_9_1 1)))
 (or $x8064 (= cell_9_1 2) (= cell_9_1 3) (= cell_9_1 4) (= cell_9_1 5) (= cell_9_1 6) (= cell_9_1 7) (= cell_9_1 8) (= cell_9_1 9))))
(assert
 (let (($x8442 (= cell_1_2 9)))
 (let (($x8583 (= cell_1_2 8)))
 (let (($x8366 (= cell_1_2 7)))
 (let (($x9997 (= cell_1_2 6)))
 (let (($x9061 (= cell_1_2 5)))
 (let (($x3482 (= cell_1_2 4)))
 (let (($x4120 (= cell_1_2 3)))
 (let (($x2828 (= cell_1_2 2)))
 (let (($x5171 (= cell_1_2 1)))
 (or $x5171 $x2828 $x4120 $x3482 $x9061 $x9997 $x8366 $x8583 $x8442)))))))))))
(assert
 (let (($x3558 (= cell_2_2 1)))
 (or $x3558 (= cell_2_2 2) (= cell_2_2 3) (= cell_2_2 4) (= cell_2_2 5) (= cell_2_2 6) (= cell_2_2 7) (= cell_2_2 8) (= cell_2_2 9))))
(assert
 (let (($x2671 (= cell_3_2 9)))
 (let (($x666 (= cell_3_2 8)))
 (let (($x2168 (= cell_3_2 7)))
 (let (($x5456 (= cell_3_2 6)))
 (let (($x8474 (= cell_3_2 5)))
 (let (($x4510 (= cell_3_2 4)))
 (let (($x1978 (= cell_3_2 3)))
 (let (($x5813 (= cell_3_2 2)))
 (let (($x8480 (= cell_3_2 1)))
 (or $x8480 $x5813 $x1978 $x4510 $x8474 $x5456 $x2168 $x666 $x2671)))))))))))
(assert
 (let (($x7432 (= cell_4_2 9)))
 (let (($x782 (= cell_4_2 8)))
 (let (($x5140 (= cell_4_2 7)))
 (let (($x8033 (= cell_4_2 6)))
 (let (($x1168 (= cell_4_2 5)))
 (let (($x7015 (= cell_4_2 4)))
 (let (($x2438 (= cell_4_2 3)))
 (let (($x8590 (= cell_4_2 2)))
 (let (($x9163 (= cell_4_2 1)))
 (or $x9163 $x8590 $x2438 $x7015 $x1168 $x8033 $x5140 $x782 $x7432)))))))))))
(assert
 (let (($x486 (= cell_5_2 9)))
 (let (($x9513 (= cell_5_2 8)))
 (let (($x541 (= cell_5_2 7)))
 (let (($x1343 (= cell_5_2 6)))
 (let (($x8907 (= cell_5_2 5)))
 (let (($x5162 (= cell_5_2 4)))
 (let (($x5876 (= cell_5_2 3)))
 (let (($x5487 (= cell_5_2 2)))
 (let (($x1740 (= cell_5_2 1)))
 (or $x1740 $x5487 $x5876 $x5162 $x8907 $x1343 $x541 $x9513 $x486)))))))))))
(assert
 (let (($x5918 (= cell_6_2 9)))
 (let (($x7799 (= cell_6_2 8)))
 (let (($x4792 (= cell_6_2 7)))
 (let (($x978 (= cell_6_2 6)))
 (let (($x9089 (= cell_6_2 5)))
 (let (($x81 (= cell_6_2 4)))
 (let (($x6963 (= cell_6_2 3)))
 (let (($x8895 (= cell_6_2 2)))
 (let (($x1874 (= cell_6_2 1)))
 (or $x1874 $x8895 $x6963 $x81 $x9089 $x978 $x4792 $x7799 $x5918)))))))))))
(assert
 (let (($x3138 (= cell_7_2 1)))
 (or $x3138 (= cell_7_2 2) (= cell_7_2 3) (= cell_7_2 4) (= cell_7_2 5) (= cell_7_2 6) (= cell_7_2 7) (= cell_7_2 8) (= cell_7_2 9))))
(assert
 (or (= cell_8_2 1) (= cell_8_2 2) (= cell_8_2 3) (= cell_8_2 4) (= cell_8_2 5) (= cell_8_2 6) (= cell_8_2 7) (= cell_8_2 8) (= cell_8_2 9)))
(assert
 (or (= cell_9_2 1) (= cell_9_2 2) (= cell_9_2 3) (= cell_9_2 4) (= cell_9_2 5) (= cell_9_2 6) (= cell_9_2 7) (= cell_9_2 8) (= cell_9_2 9)))
(assert
 (let (($x4891 (= cell_1_3 9)))
 (let (($x4514 (= cell_1_3 8)))
 (let (($x4299 (= cell_1_3 7)))
 (let (($x3780 (= cell_1_3 6)))
 (let (($x2854 (= cell_1_3 5)))
 (let (($x8071 (= cell_1_3 4)))
 (let (($x8616 (= cell_1_3 3)))
 (let (($x1345 (= cell_1_3 2)))
 (let (($x2569 (= cell_1_3 1)))
 (or $x2569 $x1345 $x8616 $x8071 $x2854 $x3780 $x4299 $x4514 $x4891)))))))))))
(assert
 (let (($x548 (= cell_2_3 9)))
 (let (($x7687 (= cell_2_3 8)))
 (let (($x8497 (= cell_2_3 7)))
 (let (($x3633 (= cell_2_3 6)))
 (let (($x4464 (= cell_2_3 5)))
 (let (($x5658 (= cell_2_3 4)))
 (let (($x5583 (= cell_2_3 3)))
 (let (($x4640 (= cell_2_3 2)))
 (let (($x8905 (= cell_2_3 1)))
 (or $x8905 $x4640 $x5583 $x5658 $x4464 $x3633 $x8497 $x7687 $x548)))))))))))
(assert
 (let (($x5110 (= cell_3_3 9)))
 (let (($x9645 (= cell_3_3 8)))
 (let (($x5576 (= cell_3_3 7)))
 (let (($x5390 (= cell_3_3 6)))
 (let (($x6157 (= cell_3_3 5)))
 (let (($x2562 (= cell_3_3 4)))
 (let (($x9471 (= cell_3_3 3)))
 (let (($x5357 (= cell_3_3 2)))
 (let (($x7881 (= cell_3_3 1)))
 (or $x7881 $x5357 $x9471 $x2562 $x6157 $x5390 $x5576 $x9645 $x5110)))))))))))
(assert
 (let (($x8718 (= cell_4_3 9)))
 (let (($x6357 (= cell_4_3 8)))
 (let (($x6045 (= cell_4_3 7)))
 (let (($x1150 (= cell_4_3 6)))
 (let (($x1298 (= cell_4_3 5)))
 (let (($x8705 (= cell_4_3 4)))
 (let (($x8549 (= cell_4_3 3)))
 (let (($x253 (= cell_4_3 2)))
 (let (($x2216 (= cell_4_3 1)))
 (or $x2216 $x253 $x8549 $x8705 $x1298 $x1150 $x6045 $x6357 $x8718)))))))))))
(assert
 (let (($x6004 (= cell_5_3 1)))
 (or $x6004 (= cell_5_3 2) (= cell_5_3 3) (= cell_5_3 4) (= cell_5_3 5) (= cell_5_3 6) (= cell_5_3 7) (= cell_5_3 8) (= cell_5_3 9))))
(assert
 (let (($x4749 (= cell_6_3 9)))
 (let (($x5476 (= cell_6_3 8)))
 (let (($x815 (= cell_6_3 7)))
 (let (($x9862 (= cell_6_3 6)))
 (let (($x4072 (= cell_6_3 5)))
 (let (($x859 (= cell_6_3 4)))
 (let (($x3229 (= cell_6_3 3)))
 (let (($x6148 (= cell_6_3 2)))
 (let (($x1647 (= cell_6_3 1)))
 (or $x1647 $x6148 $x3229 $x859 $x4072 $x9862 $x815 $x5476 $x4749)))))))))))
(assert
 (let (($x2737 (= cell_7_3 1)))
 (or $x2737 (= cell_7_3 2) (= cell_7_3 3) (= cell_7_3 4) (= cell_7_3 5) (= cell_7_3 6) (= cell_7_3 7) (= cell_7_3 8) (= cell_7_3 9))))
(assert
 (let (($x2945 (= cell_8_3 1)))
 (or $x2945 (= cell_8_3 2) (= cell_8_3 3) (= cell_8_3 4) (= cell_8_3 5) (= cell_8_3 6) (= cell_8_3 7) (= cell_8_3 8) (= cell_8_3 9))))
(assert
 (let (($x1503 (= cell_9_3 1)))
 (or $x1503 (= cell_9_3 2) (= cell_9_3 3) (= cell_9_3 4) (= cell_9_3 5) (= cell_9_3 6) (= cell_9_3 7) (= cell_9_3 8) (= cell_9_3 9))))
(assert
 (let (($x1706 (= cell_1_4 9)))
 (let (($x2934 (= cell_1_4 8)))
 (let (($x5775 (= cell_1_4 7)))
 (let (($x6625 (= cell_1_4 6)))
 (let (($x1626 (= cell_1_4 5)))
 (let (($x1329 (= cell_1_4 4)))
 (let (($x9164 (= cell_1_4 3)))
 (let (($x9543 (= cell_1_4 2)))
 (let (($x847 (= cell_1_4 1)))
 (or $x847 $x9543 $x9164 $x1329 $x1626 $x6625 $x5775 $x2934 $x1706)))))))))))
(assert
 (let (($x1989 (= cell_2_4 9)))
 (let (($x3534 (= cell_2_4 8)))
 (let (($x3798 (= cell_2_4 7)))
 (let (($x8708 (= cell_2_4 6)))
 (let (($x1084 (= cell_2_4 5)))
 (let (($x1748 (= cell_2_4 4)))
 (let (($x4769 (= cell_2_4 3)))
 (let (($x5269 (= cell_2_4 2)))
 (let (($x7286 (= cell_2_4 1)))
 (or $x7286 $x5269 $x4769 $x1748 $x1084 $x8708 $x3798 $x3534 $x1989)))))))))))
(assert
 (let (($x9783 (= cell_3_4 9)))
 (let (($x6861 (= cell_3_4 8)))
 (let (($x2298 (= cell_3_4 7)))
 (let (($x1549 (= cell_3_4 6)))
 (let (($x5897 (= cell_3_4 5)))
 (let (($x8263 (= cell_3_4 4)))
 (let (($x591 (= cell_3_4 3)))
 (let (($x2293 (= cell_3_4 2)))
 (let (($x311 (= cell_3_4 1)))
 (or $x311 $x2293 $x591 $x8263 $x5897 $x1549 $x2298 $x6861 $x9783)))))))))))
(assert
 (let (($x9490 (= cell_4_4 1)))
 (or $x9490 (= cell_4_4 2) (= cell_4_4 3) (= cell_4_4 4) (= cell_4_4 5) (= cell_4_4 6) (= cell_4_4 7) (= cell_4_4 8) (= cell_4_4 9))))
(assert
 (let (($x7104 (= cell_5_4 1)))
 (or $x7104 (= cell_5_4 2) (= cell_5_4 3) (= cell_5_4 4) (= cell_5_4 5) (= cell_5_4 6) (= cell_5_4 7) (= cell_5_4 8) (= cell_5_4 9))))
(assert
 (let (($x1962 (= cell_6_4 9)))
 (let (($x5433 (= cell_6_4 8)))
 (let (($x1060 (= cell_6_4 7)))
 (let (($x5866 (= cell_6_4 6)))
 (let (($x6377 (= cell_6_4 5)))
 (let (($x8462 (= cell_6_4 4)))
 (let (($x8885 (= cell_6_4 3)))
 (let (($x3118 (= cell_6_4 2)))
 (let (($x4973 (= cell_6_4 1)))
 (or $x4973 $x3118 $x8885 $x8462 $x6377 $x5866 $x1060 $x5433 $x1962)))))))))))
(assert
 (let (($x4211 (= cell_7_4 1)))
 (or $x4211 (= cell_7_4 2) (= cell_7_4 3) (= cell_7_4 4) (= cell_7_4 5) (= cell_7_4 6) (= cell_7_4 7) (= cell_7_4 8) (= cell_7_4 9))))
(assert
 (let (($x9618 (= cell_8_4 1)))
 (or $x9618 (= cell_8_4 2) (= cell_8_4 3) (= cell_8_4 4) (= cell_8_4 5) (= cell_8_4 6) (= cell_8_4 7) (= cell_8_4 8) (= cell_8_4 9))))
(assert
 (let (($x6289 (= cell_9_4 1)))
 (or $x6289 (= cell_9_4 2) (= cell_9_4 3) (= cell_9_4 4) (= cell_9_4 5) (= cell_9_4 6) (= cell_9_4 7) (= cell_9_4 8) (= cell_9_4 9))))
(assert
 (let (($x8494 (= cell_1_5 9)))
 (let (($x7408 (= cell_1_5 8)))
 (let (($x540 (= cell_1_5 7)))
 (let (($x9347 (= cell_1_5 6)))
 (let (($x4881 (= cell_1_5 5)))
 (let (($x8909 (= cell_1_5 4)))
 (let (($x7446 (= cell_1_5 3)))
 (let (($x8425 (= cell_1_5 2)))
 (let (($x992 (= cell_1_5 1)))
 (or $x992 $x8425 $x7446 $x8909 $x4881 $x9347 $x540 $x7408 $x8494)))))))))))
(assert
 (let (($x5753 (= cell_2_5 9)))
 (let (($x4076 (= cell_2_5 8)))
 (let (($x1199 (= cell_2_5 7)))
 (let (($x8730 (= cell_2_5 6)))
 (let (($x2392 (= cell_2_5 5)))
 (let (($x10021 (= cell_2_5 4)))
 (let (($x849 (= cell_2_5 3)))
 (let (($x454 (= cell_2_5 2)))
 (let (($x3924 (= cell_2_5 1)))
 (or $x3924 $x454 $x849 $x10021 $x2392 $x8730 $x1199 $x4076 $x5753)))))))))))
(assert
 (let (($x5716 (= cell_3_5 1)))
 (or $x5716 (= cell_3_5 2) (= cell_3_5 3) (= cell_3_5 4) (= cell_3_5 5) (= cell_3_5 6) (= cell_3_5 7) (= cell_3_5 8) (= cell_3_5 9))))
(assert
 (let (($x6635 (= cell_4_5 1)))
 (or $x6635 (= cell_4_5 2) (= cell_4_5 3) (= cell_4_5 4) (= cell_4_5 5) (= cell_4_5 6) (= cell_4_5 7) (= cell_4_5 8) (= cell_4_5 9))))
(assert
 (let (($x2261 (= cell_5_5 1)))
 (or $x2261 (= cell_5_5 2) (= cell_5_5 3) (= cell_5_5 4) (= cell_5_5 5) (= cell_5_5 6) (= cell_5_5 7) (= cell_5_5 8) (= cell_5_5 9))))
(assert
 (let (($x8638 (= cell_6_5 9)))
 (let (($x9236 (= cell_6_5 8)))
 (let (($x1183 (= cell_6_5 7)))
 (let (($x861 (= cell_6_5 6)))
 (let (($x2334 (= cell_6_5 5)))
 (let (($x9469 (= cell_6_5 4)))
 (let (($x2084 (= cell_6_5 3)))
 (let (($x865 (= cell_6_5 2)))
 (let (($x9284 (= cell_6_5 1)))
 (or $x9284 $x865 $x2084 $x9469 $x2334 $x861 $x1183 $x9236 $x8638)))))))))))
(assert
 (let (($x1880 (= cell_7_5 1)))
 (or $x1880 (= cell_7_5 2) (= cell_7_5 3) (= cell_7_5 4) (= cell_7_5 5) (= cell_7_5 6) (= cell_7_5 7) (= cell_7_5 8) (= cell_7_5 9))))
(assert
 (let (($x9859 (= cell_8_5 1)))
 (or $x9859 (= cell_8_5 2) (= cell_8_5 3) (= cell_8_5 4) (= cell_8_5 5) (= cell_8_5 6) (= cell_8_5 7) (= cell_8_5 8) (= cell_8_5 9))))
(assert
 (let (($x1064 (= cell_9_5 1)))
 (or $x1064 (= cell_9_5 2) (= cell_9_5 3) (= cell_9_5 4) (= cell_9_5 5) (= cell_9_5 6) (= cell_9_5 7) (= cell_9_5 8) (= cell_9_5 9))))
(assert
 (let (($x3986 (= cell_1_6 9)))
 (let (($x1265 (= cell_1_6 8)))
 (let (($x2131 (= cell_1_6 7)))
 (let (($x6571 (= cell_1_6 6)))
 (let (($x3010 (= cell_1_6 5)))
 (let (($x8276 (= cell_1_6 4)))
 (let (($x4517 (= cell_1_6 3)))
 (let (($x985 (= cell_1_6 2)))
 (let (($x9681 (= cell_1_6 1)))
 (or $x9681 $x985 $x4517 $x8276 $x3010 $x6571 $x2131 $x1265 $x3986)))))))))))
(assert
 (let (($x6088 (= cell_2_6 9)))
 (let (($x6406 (= cell_2_6 8)))
 (let (($x4252 (= cell_2_6 7)))
 (let (($x6873 (= cell_2_6 6)))
 (let (($x6248 (= cell_2_6 5)))
 (let (($x10010 (= cell_2_6 4)))
 (let (($x8310 (= cell_2_6 3)))
 (let (($x5800 (= cell_2_6 2)))
 (let (($x794 (= cell_2_6 1)))
 (or $x794 $x5800 $x8310 $x10010 $x6248 $x6873 $x4252 $x6406 $x6088)))))))))))
(assert
 (let (($x2019 (= cell_3_6 1)))
 (or $x2019 (= cell_3_6 2) (= cell_3_6 3) (= cell_3_6 4) (= cell_3_6 5) (= cell_3_6 6) (= cell_3_6 7) (= cell_3_6 8) (= cell_3_6 9))))
(assert
 (let (($x5660 (= cell_4_6 1)))
 (or $x5660 (= cell_4_6 2) (= cell_4_6 3) (= cell_4_6 4) (= cell_4_6 5) (= cell_4_6 6) (= cell_4_6 7) (= cell_4_6 8) (= cell_4_6 9))))
(assert
 (let (($x10233 (= cell_5_6 1)))
 (or $x10233 (= cell_5_6 2) (= cell_5_6 3) (= cell_5_6 4) (= cell_5_6 5) (= cell_5_6 6) (= cell_5_6 7) (= cell_5_6 8) (= cell_5_6 9))))
(assert
 (let (($x6490 (= cell_6_6 9)))
 (let (($x9209 (= cell_6_6 8)))
 (let (($x5627 (= cell_6_6 7)))
 (let (($x7081 (= cell_6_6 6)))
 (let (($x8069 (= cell_6_6 5)))
 (let (($x3280 (= cell_6_6 4)))
 (let (($x7653 (= cell_6_6 3)))
 (let (($x6178 (= cell_6_6 2)))
 (let (($x8229 (= cell_6_6 1)))
 (or $x8229 $x6178 $x7653 $x3280 $x8069 $x7081 $x5627 $x9209 $x6490)))))))))))
(assert
 (let (($x6079 (= cell_7_6 1)))
 (or $x6079 (= cell_7_6 2) (= cell_7_6 3) (= cell_7_6 4) (= cell_7_6 5) (= cell_7_6 6) (= cell_7_6 7) (= cell_7_6 8) (= cell_7_6 9))))
(assert
 (or (= cell_8_6 1) (= cell_8_6 2) (= cell_8_6 3) (= cell_8_6 4) (= cell_8_6 5) (= cell_8_6 6) (= cell_8_6 7) (= cell_8_6 8) (= cell_8_6 9)))
(assert
 (or (= cell_9_6 1) (= cell_9_6 2) (= cell_9_6 3) (= cell_9_6 4) (= cell_9_6 5) (= cell_9_6 6) (= cell_9_6 7) (= cell_9_6 8) (= cell_9_6 9)))
(assert
 (let (($x8579 (= cell_1_7 9)))
 (let (($x7017 (= cell_1_7 8)))
 (let (($x5217 (= cell_1_7 7)))
 (let (($x1149 (= cell_1_7 6)))
 (let (($x8090 (= cell_1_7 5)))
 (let (($x10018 (= cell_1_7 4)))
 (let (($x3257 (= cell_1_7 3)))
 (let (($x3430 (= cell_1_7 2)))
 (let (($x6462 (= cell_1_7 1)))
 (or $x6462 $x3430 $x3257 $x10018 $x8090 $x1149 $x5217 $x7017 $x8579)))))))))))
(assert
 (let (($x942 (= cell_2_7 1)))
 (or $x942 (= cell_2_7 2) (= cell_2_7 3) (= cell_2_7 4) (= cell_2_7 5) (= cell_2_7 6) (= cell_2_7 7) (= cell_2_7 8) (= cell_2_7 9))))
(assert
 (let (($x7361 (= cell_3_7 1)))
 (or $x7361 (= cell_3_7 2) (= cell_3_7 3) (= cell_3_7 4) (= cell_3_7 5) (= cell_3_7 6) (= cell_3_7 7) (= cell_3_7 8) (= cell_3_7 9))))
(assert
 (let (($x3448 (= cell_4_7 9)))
 (let (($x668 (= cell_4_7 8)))
 (let (($x7005 (= cell_4_7 7)))
 (let (($x8703 (= cell_4_7 6)))
 (let (($x3220 (= cell_4_7 5)))
 (let (($x763 (= cell_4_7 4)))
 (let (($x9508 (= cell_4_7 3)))
 (let (($x5288 (= cell_4_7 2)))
 (let (($x3846 (= cell_4_7 1)))
 (or $x3846 $x5288 $x9508 $x763 $x3220 $x8703 $x7005 $x668 $x3448)))))))))))
(assert
 (let (($x4247 (= cell_5_7 9)))
 (let (($x1395 (= cell_5_7 8)))
 (let (($x1609 (= cell_5_7 7)))
 (let (($x2664 (= cell_5_7 6)))
 (let (($x9057 (= cell_5_7 5)))
 (let (($x5094 (= cell_5_7 4)))
 (let (($x3706 (= cell_5_7 3)))
 (let (($x7878 (= cell_5_7 2)))
 (let (($x1541 (= cell_5_7 1)))
 (or $x1541 $x7878 $x3706 $x5094 $x9057 $x2664 $x1609 $x1395 $x4247)))))))))))
(assert
 (let (($x9971 (= cell_6_7 9)))
 (let (($x6538 (= cell_6_7 8)))
 (let (($x656 (= cell_6_7 7)))
 (let (($x5200 (= cell_6_7 6)))
 (let (($x8323 (= cell_6_7 5)))
 (let (($x6550 (= cell_6_7 4)))
 (let (($x8385 (= cell_6_7 3)))
 (let (($x10248 (= cell_6_7 2)))
 (let (($x3962 (= cell_6_7 1)))
 (or $x3962 $x10248 $x8385 $x6550 $x8323 $x5200 $x656 $x6538 $x9971)))))))))))
(assert
 (let (($x2407 (= cell_7_7 1)))
 (or $x2407 (= cell_7_7 2) (= cell_7_7 3) (= cell_7_7 4) (= cell_7_7 5) (= cell_7_7 6) (= cell_7_7 7) (= cell_7_7 8) (= cell_7_7 9))))
(assert
 (let (($x2597 (= cell_8_7 1)))
 (or $x2597 (= cell_8_7 2) (= cell_8_7 3) (= cell_8_7 4) (= cell_8_7 5) (= cell_8_7 6) (= cell_8_7 7) (= cell_8_7 8) (= cell_8_7 9))))
(assert
 (or (= cell_9_7 1) (= cell_9_7 2) (= cell_9_7 3) (= cell_9_7 4) (= cell_9_7 5) (= cell_9_7 6) (= cell_9_7 7) (= cell_9_7 8) (= cell_9_7 9)))
(assert
 (let (($x498 (= cell_1_8 1)))
 (or $x498 (= cell_1_8 2) (= cell_1_8 3) (= cell_1_8 4) (= cell_1_8 5) (= cell_1_8 6) (= cell_1_8 7) (= cell_1_8 8) (= cell_1_8 9))))
(assert
 (let (($x7231 (= cell_2_8 1)))
 (or $x7231 (= cell_2_8 2) (= cell_2_8 3) (= cell_2_8 4) (= cell_2_8 5) (= cell_2_8 6) (= cell_2_8 7) (= cell_2_8 8) (= cell_2_8 9))))
(assert
 (let (($x575 (= cell_3_8 1)))
 (or $x575 (= cell_3_8 2) (= cell_3_8 3) (= cell_3_8 4) (= cell_3_8 5) (= cell_3_8 6) (= cell_3_8 7) (= cell_3_8 8) (= cell_3_8 9))))
(assert
 (let (($x7401 (= cell_4_8 9)))
 (let (($x6246 (= cell_4_8 8)))
 (let (($x6655 (= cell_4_8 7)))
 (let (($x6884 (= cell_4_8 6)))
 (let (($x8920 (= cell_4_8 5)))
 (let (($x9452 (= cell_4_8 4)))
 (let (($x9099 (= cell_4_8 3)))
 (let (($x4270 (= cell_4_8 2)))
 (let (($x6792 (= cell_4_8 1)))
 (or $x6792 $x4270 $x9099 $x9452 $x8920 $x6884 $x6655 $x6246 $x7401)))))))))))
(assert
 (let (($x2695 (= cell_5_8 9)))
 (let (($x8648 (= cell_5_8 8)))
 (let (($x761 (= cell_5_8 7)))
 (let (($x6166 (= cell_5_8 6)))
 (let (($x1400 (= cell_5_8 5)))
 (let (($x2280 (= cell_5_8 4)))
 (let (($x5517 (= cell_5_8 3)))
 (let (($x7323 (= cell_5_8 2)))
 (let (($x1296 (= cell_5_8 1)))
 (or $x1296 $x7323 $x5517 $x2280 $x1400 $x6166 $x761 $x8648 $x2695)))))))))))
(assert
 (let (($x6658 (= cell_6_8 9)))
 (let (($x5360 (= cell_6_8 8)))
 (let (($x3192 (= cell_6_8 7)))
 (let (($x3034 (= cell_6_8 6)))
 (let (($x494 (= cell_6_8 5)))
 (let (($x9444 (= cell_6_8 4)))
 (let (($x7095 (= cell_6_8 3)))
 (let (($x3462 (= cell_6_8 2)))
 (let (($x5959 (= cell_6_8 1)))
 (or $x5959 $x3462 $x7095 $x9444 $x494 $x3034 $x3192 $x5360 $x6658)))))))))))
(assert
 (let (($x8189 (= cell_7_8 1)))
 (or $x8189 (= cell_7_8 2) (= cell_7_8 3) (= cell_7_8 4) (= cell_7_8 5) (= cell_7_8 6) (= cell_7_8 7) (= cell_7_8 8) (= cell_7_8 9))))
(assert
 (let (($x5245 (= cell_8_8 1)))
 (or $x5245 (= cell_8_8 2) (= cell_8_8 3) (= cell_8_8 4) (= cell_8_8 5) (= cell_8_8 6) (= cell_8_8 7) (= cell_8_8 8) (= cell_8_8 9))))
(assert
 (let (($x7191 (= cell_9_8 1)))
 (or $x7191 (= cell_9_8 2) (= cell_9_8 3) (= cell_9_8 4) (= cell_9_8 5) (= cell_9_8 6) (= cell_9_8 7) (= cell_9_8 8) (= cell_9_8 9))))
(assert
 (let (($x5868 (= cell_1_9 9)))
 (let (($x1194 (= cell_1_9 8)))
 (let (($x3356 (= cell_1_9 7)))
 (let (($x4612 (= cell_1_9 6)))
 (let (($x2495 (= cell_1_9 5)))
 (let (($x1483 (= cell_1_9 4)))
 (let (($x9474 (= cell_1_9 3)))
 (let (($x5862 (= cell_1_9 2)))
 (let (($x10156 (= cell_1_9 1)))
 (or $x10156 $x5862 $x9474 $x1483 $x2495 $x4612 $x3356 $x1194 $x5868)))))))))))
(assert
 (let (($x7050 (= cell_2_9 9)))
 (let (($x9985 (= cell_2_9 8)))
 (let (($x9419 (= cell_2_9 7)))
 (let (($x2447 (= cell_2_9 6)))
 (let (($x4049 (= cell_2_9 5)))
 (let (($x6901 (= cell_2_9 4)))
 (let (($x6211 (= cell_2_9 3)))
 (let (($x8948 (= cell_2_9 2)))
 (let (($x2356 (= cell_2_9 1)))
 (or $x2356 $x8948 $x6211 $x6901 $x4049 $x2447 $x9419 $x9985 $x7050)))))))))))
(assert
 (let (($x6485 (= cell_3_9 9)))
 (let (($x6997 (= cell_3_9 8)))
 (let (($x9315 (= cell_3_9 7)))
 (let (($x3784 (= cell_3_9 6)))
 (let (($x7183 (= cell_3_9 5)))
 (let (($x299 (= cell_3_9 4)))
 (let (($x2212 (= cell_3_9 3)))
 (let (($x4583 (= cell_3_9 2)))
 (let (($x4844 (= cell_3_9 1)))
 (or $x4844 $x4583 $x2212 $x299 $x7183 $x3784 $x9315 $x6997 $x6485)))))))))))
(assert
 (let (($x3720 (= cell_4_9 9)))
 (let (($x9359 (= cell_4_9 8)))
 (let (($x2711 (= cell_4_9 7)))
 (let (($x2601 (= cell_4_9 6)))
 (let (($x7952 (= cell_4_9 5)))
 (let (($x3822 (= cell_4_9 4)))
 (let (($x4609 (= cell_4_9 3)))
 (let (($x2505 (= cell_4_9 2)))
 (let (($x6883 (= cell_4_9 1)))
 (or $x6883 $x2505 $x4609 $x3822 $x7952 $x2601 $x2711 $x9359 $x3720)))))))))))
(assert
 (let (($x155 (= cell_5_9 9)))
 (let (($x7319 (= cell_5_9 8)))
 (let (($x3278 (= cell_5_9 7)))
 (let (($x6612 (= cell_5_9 6)))
 (let (($x8536 (= cell_5_9 5)))
 (let (($x2835 (= cell_5_9 4)))
 (let (($x10050 (= cell_5_9 3)))
 (let (($x2574 (= cell_5_9 2)))
 (let (($x3151 (= cell_5_9 1)))
 (or $x3151 $x2574 $x10050 $x2835 $x8536 $x6612 $x3278 $x7319 $x155)))))))))))
(assert
 (let (($x7253 (= cell_6_9 1)))
 (or $x7253 (= cell_6_9 2) (= cell_6_9 3) (= cell_6_9 4) (= cell_6_9 5) (= cell_6_9 6) (= cell_6_9 7) (= cell_6_9 8) (= cell_6_9 9))))
(assert
 (let (($x10211 (= cell_7_9 1)))
 (or $x10211 (= cell_7_9 2) (= cell_7_9 3) (= cell_7_9 4) (= cell_7_9 5) (= cell_7_9 6) (= cell_7_9 7) (= cell_7_9 8) (= cell_7_9 9))))
(assert
 (let (($x8096 (= cell_8_9 1)))
 (or $x8096 (= cell_8_9 2) (= cell_8_9 3) (= cell_8_9 4) (= cell_8_9 5) (= cell_8_9 6) (= cell_8_9 7) (= cell_8_9 8) (= cell_8_9 9))))
(assert
 (let (($x4326 (= cell_9_9 1)))
 (or $x4326 (= cell_9_9 2) (= cell_9_9 3) (= cell_9_9 4) (= cell_9_9 5) (= cell_9_9 6) (= cell_9_9 7) (= cell_9_9 8) (= cell_9_9 9))))
(assert
 (and (distinct cell_1_1 cell_1_2 cell_1_3 cell_1_4 cell_1_5 cell_1_6 cell_1_7 cell_1_8 cell_1_9) true))
(assert
 (and (distinct cell_2_1 cell_2_2 cell_2_3 cell_2_4 cell_2_5 cell_2_6 cell_2_7 cell_2_8 cell_2_9) true))
(assert
 (and (distinct cell_3_1 cell_3_2 cell_3_3 cell_3_4 cell_3_5 cell_3_6 cell_3_7 cell_3_8 cell_3_9) true))
(assert
 (and (distinct cell_4_1 cell_4_2 cell_4_3 cell_4_4 cell_4_5 cell_4_6 cell_4_7 cell_4_8 cell_4_9) true))
(assert
 (and (distinct cell_5_1 cell_5_2 cell_5_3 cell_5_4 cell_5_5 cell_5_6 cell_5_7 cell_5_8 cell_5_9) true))
(assert
 (and (distinct cell_6_1 cell_6_2 cell_6_3 cell_6_4 cell_6_5 cell_6_6 cell_6_7 cell_6_8 cell_6_9) true))
(assert
 (and (distinct cell_7_1 cell_7_2 cell_7_3 cell_7_4 cell_7_5 cell_7_6 cell_7_7 cell_7_8 cell_7_9) true))
(assert
 (and (distinct cell_8_1 cell_8_2 cell_8_3 cell_8_4 cell_8_5 cell_8_6 cell_8_7 cell_8_8 cell_8_9) true))
(assert
 (and (distinct cell_9_1 cell_9_2 cell_9_3 cell_9_4 cell_9_5 cell_9_6 cell_9_7 cell_9_8 cell_9_9) true))
(assert
 (and (distinct cell_1_1 cell_2_1 cell_3_1 cell_4_1 cell_5_1 cell_6_1 cell_7_1 cell_8_1 cell_9_1) true))
(assert
 (and (distinct cell_1_2 cell_2_2 cell_3_2 cell_4_2 cell_5_2 cell_6_2 cell_7_2 cell_8_2 cell_9_2) true))
(assert
 (and (distinct cell_1_3 cell_2_3 cell_3_3 cell_4_3 cell_5_3 cell_6_3 cell_7_3 cell_8_3 cell_9_3) true))
(assert
 (and (distinct cell_1_4 cell_2_4 cell_3_4 cell_4_4 cell_5_4 cell_6_4 cell_7_4 cell_8_4 cell_9_4) true))
(assert
 (and (distinct cell_1_5 cell_2_5 cell_3_5 cell_4_5 cell_5_5 cell_6_5 cell_7_5 cell_8_5 cell_9_5) true))
(assert
 (and (distinct cell_1_6 cell_2_6 cell_3_6 cell_4_6 cell_5_6 cell_6_6 cell_7_6 cell_8_6 cell_9_6) true))
(assert
 (and (distinct cell_1_7 cell_2_7 cell_3_7 cell_4_7 cell_5_7 cell_6_7 cell_7_7 cell_8_7 cell_9_7) true))
(assert
 (and (distinct cell_1_8 cell_2_8 cell_3_8 cell_4_8 cell_5_8 cell_6_8 cell_7_8 cell_8_8 cell_9_8) true))
(assert
 (and (distinct cell_1_9 cell_2_9 cell_3_9 cell_4_9 cell_5_9 cell_6_9 cell_7_9 cell_8_9 cell_9_9) true))
(assert
 (and (distinct cell_1_1 cell_1_2 cell_1_3 cell_2_1 cell_2_2 cell_2_3 cell_3_1 cell_3_2 cell_3_3) true))
(assert
 (and (distinct cell_1_4 cell_1_5 cell_1_6 cell_2_4 cell_2_5 cell_2_6 cell_3_4 cell_3_5 cell_3_6) true))
(assert
 (and (distinct cell_1_7 cell_1_8 cell_1_9 cell_2_7 cell_2_8 cell_2_9 cell_3_7 cell_3_8 cell_3_9) true))
(assert
 (and (distinct cell_4_1 cell_4_2 cell_4_3 cell_5_1 cell_5_2 cell_5_3 cell_6_1 cell_6_2 cell_6_3) true))
(assert
 (and (distinct cell_4_4 cell_4_5 cell_4_6 cell_5_4 cell_5_5 cell_5_6 cell_6_4 cell_6_5 cell_6_6) true))
(assert
 (and (distinct cell_4_7 cell_4_8 cell_4_9 cell_5_7 cell_5_8 cell_5_9 cell_6_7 cell_6_8 cell_6_9) true))
(assert
 (and (distinct cell_7_1 cell_7_2 cell_7_3 cell_8_1 cell_8_2 cell_8_3 cell_9_1 cell_9_2 cell_9_3) true))
(assert
 (and (distinct cell_7_4 cell_7_5 cell_7_6 cell_8_4 cell_8_5 cell_8_6 cell_9_4 cell_9_5 cell_9_6) true))
(assert
 (and (distinct cell_7_7 cell_7_8 cell_7_9 cell_8_7 cell_8_8 cell_8_9 cell_9_7 cell_9_8 cell_9_9) true))
(assert
 (let (($x9740 (and (distinct cell_5_9 cell_6_8 cell_7_7 cell_8_6) true)))
 (let (($x9413 (and (distinct cell_2_9 cell_3_8 cell_4_7 cell_5_6 cell_6_5 cell_7_4 cell_8_3 cell_9_2) true)))
 (let (($x5038 (and (distinct cell_1_8 cell_2_7 cell_3_6 cell_4_5 cell_5_4 cell_6_3 cell_7_2 cell_8_1) true)))
 (let (($x4155 (and (distinct cell_1_5 cell_2_4 cell_3_3 cell_4_2) true)))
 (let (($x5762 (and (distinct cell_5_1 cell_6_2 cell_7_3 cell_8_4) true)))
 (let (($x7566 (and (distinct cell_2_1 cell_3_2 cell_4_3 cell_5_4 cell_6_5 cell_7_6 cell_8_7 cell_9_8) true)))
 (let (($x915 (and (distinct cell_1_2 cell_2_3 cell_3_4 cell_4_5 cell_5_6 cell_6_7 cell_7_8 cell_8_9) true)))
 (let (($x8712 (and (distinct cell_1_5 cell_2_6 cell_3_7 cell_4_8) true)))
 (and $x8712 $x915 $x7566 $x5762 $x4155 $x5038 $x9413 $x9740))))))))))
(assert
 (= cell_7_7 1))
(check-sat)
